### Crystalline BTO; calculation of physical structure contstants

ndtset 1        # optimize atom pos followed by lattice params
jdtset 1        #HACK: cant read in part 2

###
# Structure Specification Vars
###

## Unit Cell
#rprim DEFAULT
acell 3.96 3.96 4.0 angstrom # a = 3.995, c = 4.034 Ã

## Atom Positions
ntypat 3        # Ba, Ti, O, resp.
znucl 56 22 8

natom 5
typat 1 2 3*3   # Ba, Ti, 3O
xred
  0.0 0.0 0.0   # Ba
  1/2 1/2 0.515 # Ti
  0.0 1/2 0.485 # O 1 yz
  1/2 0.0 0.485 # O 2 xz
  1/2 1/2 -0.03 # O 3 xy

#getcell2 -1    # should be able to use acell for both runs
getxcart2 1     # 2nd dataset uses coords from 1st set

###
# Structure Optimization Vars
###

ionmov 2        # consider 3 instead if there are fewer than 5 DoF to consider

natfix1 1       # Dont let the barium move while relaxing ion positions
iatfix1 1       # see above

ntime 40        # the # of time step to use in the optimization cycle
tolmxf 1.0e-4   # force tolerance below which relaxation itrs stop. i.e., can end calc before 'ntime' itrs are reached. In Ha/Bohr

#TODO: see man on 'ecutsm', 'dilatmx', 'strfact'
optcell1 0      # optimize atomic positions without relaxing lattice params
optcell2 3      # optimize lattice params fixing positions

ecutsm2 0.5     # recommended value
dilatmx2 1.07   # acell should be within 7% of correct value already

###
# SCF Cycle Vars
###

iscf 7          # pulay mixing of the potential
nstep 100       # Maximum number of SCF cycles
toldfe 7.0e-8   # dont use toldff since the forces converge poorly and are expected to be crude anyway
ecut 35         # probably low, but I don't need great results
#nband 20       # let Abinit determine this automatically

diemac 4000     # too high?

##Definition of the k-point grid
kptopt 1
ngkpt 8 8 8
nshiftk 1
shiftk  0.5 0.5 0.5

###
# Parallelization Vars
###

#paral_kgb 1
#npband 4
#bandpp 5
#npfft 1
#npkpt 8

###
# I/O Vars
###

prteig 0

prtden1 1        # print density and wavefcn of DS1 for use in DS2
prtwf1 1

prtden2 0        # read den,wvfcn from DS1. don't bother printing again
prtwf2 0
getden2 1
getwfk2 1
