### Crystalline BTO; calculation of physical structure contstants

ndtset 1        # optimize atom pos followed by lattice params
jdtset 1        # cant read in part 2

###
# Structure Specification Vars
###

## Unit Cell
#rprim DEFAULT
acell 3.96 3.96 4.0 angstrom 

## Atom Positions
ntypat 3        # Ba, Ti, O, resp.
znucl 56 22 8

natom 5
typat 1 2 3*3   # Ba, Ti, 3O
xred
  0.0 0.0 0.0   # Ba
  1/2 1/2 0.505 # Ti
  0.0 1/2 1/2   # O 1 yz
  1/2 0.0 1/2   # O 2 xz
  1/2 1/2 0.0   # O 3 xy

getxcart2 1     # 2nd dataset uses coords from 1st set

###
# Structure Optimization Vars
###

ionmov 2        # consider 3 instead if there are fewer than 5 DoF to consider

natfix 1        # Dont let the barium move while relaxing ion positions
iatfix 1        # see above

ntime 25        # the # of time step to use in the optimization cycle
tolmxf 1.0e-5   # force tolerance below which relaxation itrs stop. i.e., can end calc before 'ntime' itrs are reached. In Ha/Bohr

optcell1 0      # optimize atomic positions without relaxing lattice params
optcell2 6      # optimize acell(3) leaving others fixed
optcell3 9      # optimize acell(1,2) leaving acell(3) fixed

#TODO: see man on 'ecutsm', 'dilatmx', 'strfact'
ecutsm2 0.5     # recommended value
dilatmx2 1.07   # acell should be within 7% of correct value already

###
# SCF Cycle Control
###

iscf 7          # pulay mixing of the potential
nstep 150       # Maximum number of SCF cycles
toldfe 1.0e-7   # TODO: too high? too low?
#toldff 1.0e-7   
ecut 20

diemac 4000     # too high?

##Definition of the k-point grid
#nband 18
#nbdbuf 2
kptopt 1
ngkpt 4 4 4

###
# Parallelization Vars
###

#paral_kgb 1
#npband 4
#bandpp 5
#npfft 1
#npkpt 8

###
# I/O Vars
###

restartxf = -1   # resume any previous calculation attempts

prteig  0

prtden1 1        # print density and wavefcn of DS1 for use in DS2
prtwf1  1

prtden2 0        # read den,wvfcn from DS1. don't bother printing again
prtwf2  0
#getden2 1       # this wasnt working, probably since the 1st DS fails
#getwfk2 1

###   ###
# DEBUG #
###   ###

#prtvol -1       # stops after checking input vars for consistency
